language Essence 1.3

letting black be {(1, 1), (1, 3)}
$ Here is a simple "visualisation" for the value above.
$ 1 1
$ 1 3

letting white be {(3, 2), (4, 2)}
$ Here is a simple "visualisation" for the value above.
$ 3 2
$ 4 2

